c turning on binary mode checking
c parsing input formula with 259840 variables and 1039924 clauses
c finished parsing, read 23502433 bytes from proof file
c detected empty clause; start verification via backward checking
c 7605 of 1039924 clauses in core                            
c 9743 of 607914 lemmas in core using 55057 resolution steps
c 0 RAT lemmas in core; 348 redundant literals in core lemmas
s VERIFIED
c verification time: 2.701 seconds
